(declare-const |k':66:89:93| Int)
(declare-const |k':66:107| Int)
(declare-const |j':78:108| Int)
(declare-const |havoc:1| Int)
(declare-const |havoc:6:14:65| Int)
(declare-const havoc Int)
(declare-const |K:71:72| Int)
(declare-const |tmp':79:91:95| Int)
(declare-const |K:87:88:92| Int)
(declare-const |i':96:105| Int)
(declare-const |k':66:73| Int)
(declare-const tmp Int)
(declare-const |j':78:90:94| Int)
(declare-const |K:103:104| Int)
(declare-const |tmp':79:106| Int)
(declare-const j Int)
(assert (and (< (+ |havoc:1| -1000000) 0) (= (+ havoc (- |havoc:1|)) 0)
               (or (not (<= (- |K:103:104|) 0))
                     (= (+ |i':96:105| (- |K:103:104|)) 0))
               (or (and (= |K:103:104| 0) (= (+ (- |tmp':79:106|) tmp) 0)
                          (= (+ (- |k':66:107|) havoc) 0)
                          (= (+ (- |j':78:108|) j) 0) (= (- |i':96:105|) 0))
                     (and (<= (+ (- |K:103:104|) 1) 0)
                            (<= (+ (- |havoc:1|) 1) 0)
                            (<= (+ (- |j':78:108|) (* 2 |i':96:105|) -2) 0)
                            (<= (+ |i':96:105| (- |havoc:1|)) 0)
                            (<= (+ (- |j':78:108|) |havoc:1|) 0)
                            (<= (+ |j':78:108| (- |i':96:105|) (- |havoc:1|)
                                     1) 0))) (<= (- |K:103:104|) 0)
               (<= (- |i':96:105|) 0) (< (+ |i':96:105| (- |havoc:1|)) 0)
               (or (not (and (<= (- |K:87:88:92|) 0) (<= |K:87:88:92| 0)))
                     (= (+ |k':66:89:93| (- |k':66:107|)) 0))
               (or (not (<= (+ (- |K:87:88:92|) 1) 0))
                     (= (+ |k':66:89:93| (- |havoc:1|)) 0))
               (or (not (<= (- |K:87:88:92|) 0))
                     (= (+ |j':78:90:94| (- |K:87:88:92|) (* -2 |i':96:105|)) 0))
               (or (and (= |K:87:88:92| 0)
                          (= (+ (- |tmp':79:91:95|) |tmp':79:106|) 0)
                          (= (+ (- |k':66:89:93|) |k':66:107|) 0)
                          (= (+ (- |j':78:90:94|) (* 2 |i':96:105|)) 0))
                     (and (<= (+ (- |K:87:88:92|) 1) 0)
                            (<= (+ (* 2 |i':96:105|) (- |havoc:1|) 1) 0)
                            (<= (- |i':96:105|) 0) (<= (- |i':96:105|) 0)
                            (= (+ |k':66:89:93| (- |havoc:1|)) 0)
                            (<= (+ (- |j':78:90:94|) 1) 0)
                            (<= (- |i':96:105|) 0)
                            (<= (+ |j':78:90:94| (- |havoc:1|)) 0)))
               (<= (- |K:87:88:92|) 0) (<= (- |j':78:90:94|) 0)
               (<= (- |i':96:105|) 0) (< (- |havoc:1|) 0)
               (< (+ |j':78:90:94| (- |havoc:1|)) 0)
               (not (= |havoc:6:14:65| 0))
               (or (not (<= (- |K:71:72|) 0))
                     (= (+ |k':66:73| (- |K:71:72|) (- |j':78:90:94|)) 0))
               (or (and (= |K:71:72| 0)
                          (= (+ (- |k':66:73|) |j':78:90:94|) 0))
                     (and (<= (+ (- |K:71:72|) 1) 0)
                            (<= (+ |j':78:90:94| (- |havoc:1|) 1) 0)
                            (<= (- |i':96:105|) 0)
                            (<= (+ (- |j':78:90:94|) (* 2 |i':96:105|)) 0)
                            (<= (+ |k':66:73| (- |havoc:1|)) 0)
                            (<= (- |i':96:105|) 0)
                            (<= (+ (- |k':66:73|) (* 2 |i':96:105|) 1) 0)))
               (<= (- |K:71:72|) 0) (<= (- |i':96:105|) 0)
               (<= (- |k':66:73|) 0) (< (- |havoc:1|) 0)
               (< (+ |k':66:73| (- |havoc:1|)) 0)
               (not (<= (+ (- |k':66:73|) (* 2 |i':96:105|)) 0))))
(check-sat)
